(declare-const a Real)
(declare-const b Real)
(declare-const c Real)
(assert (= (* a b c) 1))
(assert (> a 0))
(assert (> b 0))
(assert (> c 0))
(assert (not (<= (+ (* -2750 (pow b 4)) (* -1646 (pow a 4)) (* -2592 (pow a (/ 4 3)) (pow b (/ 8 3))) (* 344 b (pow a 3)) (* 636 (pow a 2) (pow b 2)) (* 2592 (pow a (/ 5 3)) (pow b (/ 7 3))) (* 3416 a (pow b 3))) 0)))
(check-sat)
(get-model)
(exit)